p cnf 430 1488
-191 51 0
-191 180 0
-191 124 0
-191 13 0
-191 11 0
191 -51 -180 -124 -13 -11 0
-192 77 0
-192 116 0
-192 -31 0
-192 -30 0
-192 123 0
192 -77 -116 31 30 -123 0
-193 103 0
-193 141 0
-193 -100 0
-193 -117 0
-193 -145 0
193 -103 -141 100 117 145 0
-194 81 0
-194 27 0
-194 -175 0
-194 -107 0
-194 -92 0
194 -81 -27 175 107 92 0
-195 44 0
-195 187 0
-195 -50 0
-195 -118 0
-195 97 0
195 -44 -187 50 118 -97 0
191 192 193 194 195 0
-196 132 0
-196 13 0
-196 -102 0
-196 -188 0
-196 -145 0
196 -132 -13 102 188 145 0
-197 -37 0
-197 -154 0
-197 -99 0
-197 -107 0
-197 -121 0
197 37 154 99 107 121 0
-198 62 0
-198 -162 0
-198 104 0
-198 -37 0
-198 -150 0
198 -62 162 -104 37 150 0
-199 111 0
-199 -131 0
-199 51 0
-199 -121 0
-199 35 0
199 -111 131 -51 121 -35 0
-200 45 0
-200 72 0
-200 -152 0
-200 -173 0
-200 -31 0
200 -45 -72 152 173 31 0
196 197 198 199 200 0
-201 -80 0
-201 185 0
-201 91 0
-201 -3 0
-201 150 0
201 80 -185 -91 3 -150 0
-202 149 0
-202 -142 0
-202 -166 0
-202 -53 0
-202 8 0
202 -149 142 166 53 -8 0
-203 25 0
-203 -185 0
-203 -183 0
-203 -145 0
-203 -75 0
203 -25 185 183 145 75 0
-204 167 0
-204 85 0
-204 68 0
-204 188 0
-204 -47 0
204 -167 -85 -68 -188 47 0
-205 -115 0
-205 -63 0
-205 -61 0
-205 -107 0
-205 105 0
205 115 63 61 107 -105 0
201 202 203 204 205 0
-206 -25 0
-206 39 0
-206 96 0
-206 52 0
-206 140 0
206 25 -39 -96 -52 -140 0
-207 -143 0
-207 109 0
-207 -167 0
-207 -19 0
-207 -147 0
207 143 -109 167 19 147 0
-208 -41 0
-208 -94 0
-208 40 0
-208 -150 0
-208 153 0
208 41 94 -40 150 -153 0
-209 -5 0
-209 139 0
-209 18 0
-209 -90 0
-209 47 0
209 5 -139 -18 90 -47 0
-210 84 0
-210 142 0
-210 -15 0
-210 62 0
-210 124 0
210 -84 -142 15 -62 -124 0
206 207 208 209 210 0
-211 172 0
-211 -122 0
-211 -59 0
-211 -46 0
-211 70 0
211 -172 122 59 46 -70 0
-212 117 0
-212 126 0
-212 -47 0
-212 60 0
-212 -142 0
212 -117 -126 47 -60 142 0
-213 67 0
-213 -6 0
-213 185 0
-213 49 0
-213 -43 0
213 -67 6 -185 -49 43 0
-214 -187 0
-214 -150 0
-214 156 0
-214 -110 0
-214 16 0
214 187 150 -156 110 -16 0
-215 -93 0
-215 -169 0
-215 146 0
-215 144 0
-215 173 0
215 93 169 -146 -144 -173 0
211 212 213 214 215 0
-216 16 0
-216 -111 0
-216 -159 0
-216 -39 0
-216 189 0
216 -16 111 159 39 -189 0
-217 84 0
-217 73 0
-217 -117 0
-217 -139 0
-217 -9 0
217 -84 -73 117 139 9 0
-218 -154 0
-218 43 0
-218 -57 0
-218 51 0
-218 -107 0
218 154 -43 57 -51 107 0
-219 4 0
-219 167 0
-219 23 0
-219 68 0
-219 -7 0
219 -4 -167 -23 -68 7 0
-220 182 0
-220 -115 0
-220 75 0
-220 81 0
-220 46 0
220 -182 115 -75 -81 -46 0
216 217 218 219 220 0
-221 -87 0
-221 112 0
-221 -61 0
-221 18 0
-221 85 0
221 87 -112 61 -18 -85 0
-222 70 0
-222 -146 0
-222 -178 0
-222 -130 0
-222 -85 0
222 -70 146 178 130 85 0
-223 57 0
-223 -162 0
-223 -54 0
-223 -116 0
-223 -175 0
223 -57 162 54 116 175 0
-224 -26 0
-224 156 0
-224 -27 0
-224 19 0
-224 140 0
224 26 -156 27 -19 -140 0
-225 -85 0
-225 49 0
-225 184 0
-225 128 0
-225 -24 0
225 85 -49 -184 -128 24 0
221 222 223 224 225 0
-226 148 0
-226 24 0
-226 133 0
-226 -3 0
-226 -44 0
226 -148 -24 -133 3 44 0
-227 -81 0
-227 29 0
-227 -177 0
-227 170 0
-227 6 0
227 81 -29 177 -170 -6 0
-228 -112 0
-228 -98 0
-228 -145 0
-228 152 0
-228 190 0
228 112 98 145 -152 -190 0
-229 74 0
-229 -178 0
-229 -56 0
-229 -108 0
-229 188 0
229 -74 178 56 108 -188 0
-230 131 0
-230 71 0
-230 -103 0
-230 -108 0
-230 -35 0
230 -131 -71 103 108 35 0
226 227 228 229 230 0
-231 129 0
-231 187 0
-231 -45 0
-231 134 0
-231 17 0
231 -129 -187 45 -134 -17 0
-232 64 0
-232 -67 0
-232 -115 0
-232 77 0
-232 189 0
232 -64 67 115 -77 -189 0
-233 -76 0
-233 164 0
-233 -100 0
-233 66 0
-233 188 0
233 76 -164 100 -66 -188 0
-234 145 0
-234 -187 0
-234 156 0
-234 52 0
-234 82 0
234 -145 187 -156 -52 -82 0
-235 -28 0
-235 -150 0
-235 183 0
-235 162 0
-235 158 0
235 28 150 -183 -162 -158 0
231 232 233 234 235 0
-236 -93 0
-236 -185 0
-236 -99 0
-236 50 0
-236 17 0
236 93 185 99 -50 -17 0
-237 -111 0
-237 33 0
-237 -130 0
-237 67 0
-237 -119 0
237 111 -33 130 -67 119 0
-238 116 0
-238 114 0
-238 121 0
-238 -135 0
-238 -129 0
238 -116 -114 -121 135 129 0
-239 -103 0
-239 -173 0
-239 1 0
-239 -6 0
-239 183 0
239 103 173 -1 6 -183 0
-240 74 0
-240 -42 0
-240 -29 0
-240 -81 0
-240 87 0
240 -74 42 29 81 -87 0
236 237 238 239 240 0
-241 182 0
-241 -162 0
-241 116 0
-241 -107 0
-241 -86 0
241 -182 162 -116 107 86 0
-242 110 0
-242 -179 0
-242 -32 0
-242 -35 0
-242 -121 0
242 -110 179 32 35 121 0
-243 -144 0
-243 140 0
-243 -125 0
-243 151 0
-243 129 0
243 144 -140 125 -151 -129 0
-244 -83 0
-244 -33 0
-244 107 0
-244 157 0
-244 -123 0
244 83 33 -107 -157 123 0
-245 -47 0
-245 190 0
-245 -173 0
-245 -136 0
-245 140 0
245 47 -190 173 136 -140 0
241 242 243 244 245 0
-246 -33 0
-246 -21 0
-246 71 0
-246 30 0
-246 160 0
246 33 21 -71 -30 -160 0
-247 51 0
-247 -3 0
-247 -71 0
-247 84 0
-247 186 0
247 -51 3 71 -84 -186 0
-248 133 0
-248 151 0
-248 184 0
-248 84 0
-248 -82 0
248 -133 -151 -184 -84 82 0
-249 71 0
-249 165 0
-249 -24 0
-249 -69 0
-249 -94 0
249 -71 -165 24 69 94 0
-250 51 0
-250 171 0
-250 -125 0
-250 101 0
-250 95 0
250 -51 -171 125 -101 -95 0
246 247 248 249 250 0
-251 -45 0
-251 -61 0
-251 161 0
-251 -34 0
-251 130 0
251 45 61 -161 34 -130 0
-252 -54 0
-252 -25 0
-252 -133 0
-252 136 0
-252 63 0
252 54 25 133 -136 -63 0
-253 -134 0
-253 116 0
-253 -157 0
-253 -24 0
-253 -175 0
253 134 -116 157 24 175 0
-254 161 0
-254 130 0
-254 186 0
-254 -116 0
-254 -104 0
254 -161 -130 -186 116 104 0
-255 -53 0
-255 42 0
-255 -113 0
-255 -79 0
-255 28 0
255 53 -42 113 79 -28 0
251 252 253 254 255 0
-256 24 0
-256 178 0
-256 150 0
-256 93 0
-256 27 0
256 -24 -178 -150 -93 -27 0
-257 12 0
-257 -132 0
-257 96 0
-257 117 0
-257 -11 0
257 -12 132 -96 -117 11 0
-258 -38 0
-258 -139 0
-258 147 0
-258 186 0
-258 39 0
258 38 139 -147 -186 -39 0
-259 94 0
-259 86 0
-259 85 0
-259 -128 0
-259 143 0
259 -94 -86 -85 128 -143 0
-260 40 0
-260 -102 0
-260 -26 0
-260 -114 0
-260 -32 0
260 -40 102 26 114 32 0
256 257 258 259 260 0
-261 -111 0
-261 124 0
-261 186 0
-261 13 0
-261 14 0
261 111 -124 -186 -13 -14 0
-262 2 0
-262 -65 0
-262 -177 0
-262 -134 0
-262 -92 0
262 -2 65 177 134 92 0
-263 -9 0
-263 18 0
-263 74 0
-263 -163 0
-263 -4 0
263 9 -18 -74 163 4 0
-264 118 0
-264 147 0
-264 -44 0
-264 -120 0
-264 26 0
264 -118 -147 44 120 -26 0
-265 20 0
-265 30 0
-265 140 0
-265 150 0
-265 -68 0
265 -20 -30 -140 -150 68 0
261 262 263 264 265 0
-266 126 0
-266 -179 0
-266 -108 0
-266 9 0
-266 37 0
266 -126 179 108 -9 -37 0
-267 111 0
-267 54 0
-267 67 0
-267 174 0
-267 110 0
267 -111 -54 -67 -174 -110 0
-268 -126 0
-268 182 0
-268 -97 0
-268 -135 0
-268 -92 0
268 126 -182 97 135 92 0
-269 74 0
-269 -189 0
-269 3 0
-269 84 0
-269 -106 0
269 -74 189 -3 -84 106 0
-270 -164 0
-270 91 0
-270 -50 0
-270 -38 0
-270 -39 0
270 164 -91 50 38 39 0
266 267 268 269 270 0
-271 -51 0
-271 102 0
-271 -25 0
-271 9 0
-271 -21 0
271 51 -102 25 -9 21 0
-272 -108 0
-272 -143 0
-272 159 0
-272 35 0
-272 42 0
272 108 143 -159 -35 -42 0
-273 -178 0
-273 -40 0
-273 111 0
-273 -108 0
-273 130 0
273 178 40 -111 108 -130 0
-274 102 0
-274 75 0
-274 63 0
-274 36 0
-274 -4 0
274 -102 -75 -63 -36 4 0
-275 -96 0
-275 70 0
-275 104 0
-275 -2 0
-275 155 0
275 96 -70 -104 2 -155 0
271 272 273 274 275 0
-276 -33 0
-276 -74 0
-276 -137 0
-276 29 0
-276 75 0
276 33 74 137 -29 -75 0
-277 -104 0
-277 -140 0
-277 13 0
-277 -118 0
-277 -170 0
277 104 140 -13 118 170 0
-278 146 0
-278 -92 0
-278 102 0
-278 42 0
-278 -161 0
278 -146 92 -102 -42 161 0
-279 162 0
-279 184 0
-279 29 0
-279 151 0
-279 -150 0
279 -162 -184 -29 -151 150 0
-280 124 0
-280 -184 0
-280 -78 0
-280 11 0
-280 -13 0
280 -124 184 78 -11 13 0
276 277 278 279 280 0
-281 -81 0
-281 92 0
-281 163 0
-281 39 0
-281 -72 0
281 81 -92 -163 -39 72 0
-282 157 0
-282 -34 0
-282 32 0
-282 114 0
-282 -188 0
282 -157 34 -32 -114 188 0
-283 -138 0
-283 21 0
-283 -159 0
-283 187 0
-283 -94 0
283 138 -21 159 -187 94 0
-284 16 0
-284 26 0
-284 -64 0
-284 163 0
-284 141 0
284 -16 -26 64 -163 -141 0
-285 87 0
-285 -176 0
-285 -100 0
-285 -167 0
-285 104 0
285 -87 176 100 167 -104 0
281 282 283 284 285 0
-286 -189 0
-286 92 0
-286 157 0
-286 -104 0
-286 -9 0
286 189 -92 -157 104 9 0
-287 -172 0
-287 -41 0
-287 57 0
-287 186 0
-287 124 0
287 172 41 -57 -186 -124 0
-288 26 0
-288 100 0
-288 66 0
-288 -39 0
-288 -77 0
288 -26 -100 -66 39 77 0
-289 169 0
-289 83 0
-289 119 0
-289 186 0
-289 -40 0
289 -169 -83 -119 -186 40 0
-290 100 0
-290 24 0
-290 170 0
-290 188 0
-290 -116 0
290 -100 -24 -170 -188 116 0
286 287 288 289 290 0
-291 -121 0
-291 125 0
-291 -60 0
-291 138 0
-291 -65 0
291 121 -125 60 -138 65 0
-292 -104 0
-292 63 0
-292 -184 0
-292 -157 0
-292 -188 0
292 104 -63 184 157 188 0
-293 -74 0
-293 63 0
-293 20 0
-293 -25 0
-293 -28 0
293 74 -63 -20 25 28 0
-294 -157 0
-294 -141 0
-294 -146 0
-294 -29 0
-294 -72 0
294 157 141 146 29 72 0
-295 -160 0
-295 85 0
-295 170 0
-295 58 0
-295 -125 0
295 160 -85 -170 -58 125 0
291 292 293 294 295 0
-296 30 0
-296 -174 0
-296 -109 0
-296 -99 0
-296 73 0
296 -30 174 109 99 -73 0
-297 159 0
-297 22 0
-297 -97 0
-297 153 0
-297 23 0
297 -159 -22 97 -153 -23 0
-298 2 0
-298 20 0
-298 -114 0
-298 -35 0
-298 27 0
298 -2 -20 114 35 -27 0
-299 12 0
-299 -138 0
-299 -90 0
-299 -92 0
-299 -146 0
299 -12 138 90 92 146 0
-300 33 0
-300 167 0
-300 47 0
-300 99 0
-300 -92 0
300 -33 -167 -47 -99 92 0
296 297 298 299 300 0
-301 -4 0
-301 34 0
-301 53 0
-301 25 0
-301 -94 0
301 4 -34 -53 -25 94 0
-302 17 0
-302 173 0
-302 -91 0
-302 -150 0
-302 112 0
302 -17 -173 91 150 -112 0
-303 55 0
-303 -19 0
-303 105 0
-303 58 0
-303 -40 0
303 -55 19 -105 -58 40 0
-304 -136 0
-304 -59 0
-304 -95 0
-304 158 0
-304 -94 0
304 136 59 95 -158 94 0
-305 106 0
-305 -161 0
-305 -178 0
-305 -68 0
-305 15 0
305 -106 161 178 68 -15 0
301 302 303 304 305 0
-306 -157 0
-306 117 0
-306 104 0
-306 122 0
-306 -143 0
306 157 -117 -104 -122 143 0
-307 -109 0
-307 164 0
-307 9 0
-307 -75 0
-307 -64 0
307 109 -164 -9 75 64 0
-308 108 0
-308 -110 0
-308 -43 0
-308 128 0
-308 -59 0
308 -108 110 43 -128 59 0
-309 -60 0
-309 70 0
-309 -174 0
-309 -145 0
-309 135 0
309 60 -70 174 145 -135 0
-310 -6 0
-310 74 0
-310 -13 0
-310 -109 0
-310 -63 0
310 6 -74 13 109 63 0
306 307 308 309 310 0
-311 55 0
-311 64 0
-311 -127 0
-311 118 0
-311 -136 0
311 -55 -64 127 -118 136 0
-312 -71 0
-312 74 0
-312 -186 0
-312 -122 0
-312 -59 0
312 71 -74 186 122 59 0
-313 -74 0
-313 -121 0
-313 -98 0
-313 -85 0
-313 -64 0
313 74 121 98 85 64 0
-314 37 0
-314 -103 0
-314 -50 0
-314 -139 0
-314 -67 0
314 -37 103 50 139 67 0
-315 -111 0
-315 -50 0
-315 -23 0
-315 -92 0
-315 -5 0
315 111 50 23 92 5 0
311 312 313 314 315 0
-316 -113 0
-316 79 0
-316 -63 0
-316 -109 0
-316 167 0
316 113 -79 63 109 -167 0
-317 178 0
-317 -18 0
-317 -60 0
-317 -37 0
-317 188 0
317 -178 18 60 37 -188 0
-318 77 0
-318 -54 0
-318 181 0
-318 125 0
-318 177 0
318 -77 54 -181 -125 -177 0
-319 -138 0
-319 -61 0
-319 19 0
-319 -70 0
-319 188 0
319 138 61 -19 70 -188 0
-320 -96 0
-320 -95 0
-320 46 0
-320 -140 0
-320 12 0
320 96 95 -46 140 -12 0
316 317 318 319 320 0
-321 110 0
-321 -161 0
-321 170 0
-321 -102 0
-321 -176 0
321 -110 161 -170 102 176 0
-322 6 0
-322 -19 0
-322 -140 0
-322 -107 0
-322 131 0
322 -6 19 140 107 -131 0
-323 -139 0
-323 -166 0
-323 174 0
-323 -82 0
-323 59 0
323 139 166 -174 82 -59 0
-324 35 0
-324 26 0
-324 -50 0
-324 -170 0
-324 -9 0
324 -35 -26 50 170 9 0
-325 -5 0
-325 57 0
-325 73 0
-325 -25 0
-325 -7 0
325 5 -57 -73 25 7 0
321 322 323 324 325 0
-326 135 0
-326 -190 0
-326 -27 0
-326 -148 0
-326 160 0
326 -135 190 27 148 -160 0
-327 -139 0
-327 21 0
-327 -82 0
-327 -132 0
-327 -13 0
327 139 -21 82 132 13 0
-328 -140 0
-328 77 0
-328 130 0
-328 82 0
-328 -4 0
328 140 -77 -130 -82 4 0
-329 73 0
-329 11 0
-329 -115 0
-329 -20 0
-329 172 0
329 -73 -11 115 20 -172 0
-330 79 0
-330 5 0
-330 26 0
-330 -159 0
-330 112 0
330 -79 -5 -26 159 -112 0
326 327 328 329 330 0
-331 -9 0
-331 -28 0
-331 22 0
-331 55 0
-331 124 0
331 9 28 -22 -55 -124 0
-332 7 0
-332 -41 0
-332 -96 0
-332 132 0
-332 94 0
332 -7 41 96 -132 -94 0
-333 -176 0
-333 187 0
-333 59 0
-333 -181 0
-333 -22 0
333 176 -187 -59 181 22 0
-334 160 0
-334 112 0
-334 -145 0
-334 82 0
-334 68 0
334 -160 -112 145 -82 -68 0
-335 -60 0
-335 -152 0
-335 130 0
-335 -105 0
-335 -23 0
335 60 152 -130 105 23 0
331 332 333 334 335 0
-336 169 0
-336 -147 0
-336 65 0
-336 -151 0
-336 -29 0
336 -169 147 -65 151 29 0
-337 -2 0
-337 -95 0
-337 36 0
-337 67 0
-337 62 0
337 2 95 -36 -67 -62 0
-338 -43 0
-338 134 0
-338 -153 0
-338 155 0
-338 14 0
338 43 -134 153 -155 -14 0
-339 174 0
-339 133 0
-339 53 0
-339 -158 0
-339 22 0
339 -174 -133 -53 158 -22 0
-340 -155 0
-340 -76 0
-340 -129 0
-340 153 0
-340 -167 0
340 155 76 129 -153 167 0
336 337 338 339 340 0
-341 122 0
-341 182 0
-341 148 0
-341 -159 0
-341 -107 0
341 -122 -182 -148 159 107 0
-342 -29 0
-342 49 0
-342 13 0
-342 70 0
-342 -75 0
342 29 -49 -13 -70 75 0
-343 21 0
-343 -35 0
-343 187 0
-343 -177 0
-343 8 0
343 -21 35 -187 177 -8 0
-344 -146 0
-344 70 0
-344 172 0
-344 -32 0
-344 87 0
344 146 -70 -172 32 -87 0
-345 18 0
-345 118 0
-345 -44 0
-345 -20 0
-345 -177 0
345 -18 -118 44 20 177 0
341 342 343 344 345 0
-346 -62 0
-346 176 0
-346 74 0
-346 150 0
-346 1 0
346 62 -176 -74 -150 -1 0
-347 -130 0
-347 70 0
-347 -113 0
-347 -82 0
-347 33 0
347 130 -70 113 82 -33 0
-348 -123 0
-348 -105 0
-348 121 0
-348 -130 0
-348 157 0
348 123 105 -121 130 -157 0
-349 -101 0
-349 118 0
-349 -70 0
-349 89 0
-349 -157 0
349 101 -118 70 -89 157 0
-350 -11 0
-350 5 0
-350 174 0
-350 84 0
-350 -70 0
350 11 -5 -174 -84 70 0
346 347 348 349 350 0
-351 -43 0
-351 -182 0
-351 128 0
-351 -108 0
-351 -105 0
351 43 182 -128 108 105 0
-352 -177 0
-352 155 0
-352 -61 0
-352 13 0
-352 -74 0
352 177 -155 61 -13 74 0
-353 -47 0
-353 -135 0
-353 98 0
-353 -145 0
-353 99 0
353 47 135 -98 145 -99 0
-354 33 0
-354 -87 0
-354 99 0
-354 -90 0
-354 49 0
354 -33 87 -99 90 -49 0
-355 -118 0
-355 178 0
-355 -159 0
-355 160 0
-355 -39 0
355 118 -178 159 -160 39 0
351 352 353 354 355 0
-356 -65 0
-356 182 0
-356 12 0
-356 -47 0
-356 13 0
356 65 -182 -12 47 -13 0
-357 150 0
-357 -49 0
-357 -163 0
-357 -24 0
-357 -183 0
357 -150 49 163 24 183 0
-358 170 0
-358 189 0
-358 -183 0
-358 -32 0
-358 58 0
358 -170 -189 183 32 -58 0
-359 -50 0
-359 128 0
-359 129 0
-359 -164 0
-359 -150 0
359 50 -128 -129 164 150 0
-360 49 0
-360 -134 0
-360 8 0
-360 175 0
-360 -160 0
360 -49 134 -8 -175 160 0
356 357 358 359 360 0
-361 -87 0
-361 15 0
-361 -7 0
-361 -53 0
-361 -113 0
361 87 -15 7 53 113 0
-362 149 0
-362 -100 0
-362 25 0
-362 39 0
-362 -81 0
362 -149 100 -25 -39 81 0
-363 -134 0
-363 -86 0
-363 -45 0
-363 30 0
-363 10 0
363 134 86 45 -30 -10 0
-364 61 0
-364 88 0
-364 -149 0
-364 100 0
-364 -52 0
364 -61 -88 149 -100 52 0
-365 -95 0
-365 -97 0
-365 -50 0
-365 -144 0
-365 26 0
365 95 97 50 144 -26 0
361 362 363 364 365 0
-366 76 0
-366 41 0
-366 -151 0
-366 30 0
-366 -123 0
366 -76 -41 151 -30 123 0
-367 -137 0
-367 186 0
-367 30 0
-367 152 0
-367 -34 0
367 137 -186 -30 -152 34 0
-368 -27 0
-368 146 0
-368 6 0
-368 -45 0
-368 -182 0
368 27 -146 -6 45 182 0
-369 -63 0
-369 -16 0
-369 -118 0
-369 -101 0
-369 -177 0
369 63 16 118 101 177 0
-370 -59 0
-370 64 0
-370 -189 0
-370 74 0
-370 119 0
370 59 -64 189 -74 -119 0
366 367 368 369 370 0
-371 -86 0
-371 -121 0
-371 -172 0
-371 12 0
-371 162 0
371 86 121 172 -12 -162 0
-372 187 0
-372 -45 0
-372 -103 0
-372 68 0
-372 27 0
372 -187 45 103 -68 -27 0
-373 84 0
-373 122 0
-373 57 0
-373 149 0
-373 -23 0
373 -84 -122 -57 -149 23 0
-374 180 0
-374 123 0
-374 -95 0
-374 162 0
-374 -97 0
374 -180 -123 95 -162 97 0
-375 -27 0
-375 -127 0
-375 -13 0
-375 -35 0
-375 69 0
375 27 127 13 35 -69 0
371 372 373 374 375 0
-376 -132 0
-376 -88 0
-376 48 0
-376 155 0
-376 -55 0
376 132 88 -48 -155 55 0
-377 -93 0
-377 87 0
-377 -28 0
-377 -176 0
-377 110 0
377 93 -87 28 176 -110 0
-378 -109 0
-378 -16 0
-378 -7 0
-378 -98 0
-378 110 0
378 109 16 7 98 -110 0
-379 -124 0
-379 -120 0
-379 -110 0
-379 -75 0
-379 131 0
379 124 120 110 75 -131 0
-380 70 0
-380 -60 0
-380 -188 0
-380 117 0
-380 35 0
380 -70 60 188 -117 -35 0
376 377 378 379 380 0
-381 -53 0
-381 -64 0
-381 127 0
-381 -3 0
-381 27 0
381 53 64 -127 3 -27 0
-382 -66 0
-382 -23 0
-382 176 0
-382 -162 0
-382 105 0
382 66 23 -176 162 -105 0
-383 -99 0
-383 171 0
-383 30 0
-383 145 0
-383 190 0
383 99 -171 -30 -145 -190 0
-384 51 0
-384 -81 0
-384 -129 0
-384 159 0
-384 -124 0
384 -51 81 129 -159 124 0
-385 -168 0
-385 47 0
-385 28 0
-385 161 0
-385 70 0
385 168 -47 -28 -161 -70 0
381 382 383 384 385 0
-386 -26 0
-386 81 0
-386 -83 0
-386 168 0
-386 -184 0
386 26 -81 83 -168 184 0
-387 94 0
-387 135 0
-387 154 0
-387 36 0
-387 -33 0
387 -94 -135 -154 -36 33 0
-388 -84 0
-388 -163 0
-388 -151 0
-388 71 0
-388 118 0
388 84 163 151 -71 -118 0
-389 121 0
-389 133 0
-389 -186 0
-389 29 0
-389 161 0
389 -121 -133 186 -29 -161 0
-390 -33 0
-390 36 0
-390 -178 0
-390 5 0
-390 18 0
390 33 -36 178 -5 -18 0
386 387 388 389 390 0
-391 -66 0
-391 17 0
-391 -92 0
-391 118 0
-391 -130 0
391 66 -17 92 -118 130 0
-392 113 0
-392 -137 0
-392 -130 0
-392 -73 0
-392 -59 0
392 -113 137 130 73 59 0
-393 167 0
-393 -160 0
-393 163 0
-393 156 0
-393 2 0
393 -167 160 -163 -156 -2 0
-394 -179 0
-394 101 0
-394 62 0
-394 -131 0
-394 -162 0
394 179 -101 -62 131 162 0
-395 -25 0
-395 -165 0
-395 -70 0
-395 -72 0
-395 -134 0
395 25 165 70 72 134 0
391 392 393 394 395 0
-396 110 0
-396 112 0
-396 129 0
-396 151 0
-396 33 0
396 -110 -112 -129 -151 -33 0
-397 70 0
-397 -1 0
-397 -172 0
-397 171 0
-397 74 0
397 -70 1 172 -171 -74 0
-398 44 0
-398 -159 0
-398 72 0
-398 -51 0
-398 -147 0
398 -44 159 -72 51 147 0
-399 -172 0
-399 -156 0
-399 67 0
-399 -53 0
-399 -64 0
399 172 156 -67 53 64 0
-400 -102 0
-400 -64 0
-400 -157 0
-400 35 0
-400 -78 0
400 102 64 157 -35 78 0
396 397 398 399 400 0
-401 143 0
-401 55 0
-401 -141 0
-401 97 0
-401 169 0
401 -143 -55 141 -97 -169 0
-402 -34 0
-402 -4 0
-402 134 0
-402 33 0
-402 184 0
402 34 4 -134 -33 -184 0
-403 174 0
-403 161 0
-403 110 0
-403 -75 0
-403 38 0
403 -174 -161 -110 75 -38 0
-404 150 0
-404 43 0
-404 133 0
-404 -146 0
-404 23 0
404 -150 -43 -133 146 -23 0
-405 74 0
-405 23 0
-405 76 0
-405 -54 0
-405 -146 0
405 -74 -23 -76 54 146 0
401 402 403 404 405 0
-406 67 0
-406 58 0
-406 92 0
-406 94 0
-406 -54 0
406 -67 -58 -92 -94 54 0
-407 -102 0
-407 156 0
-407 -92 0
-407 129 0
-407 -160 0
407 102 -156 92 -129 160 0
-408 -21 0
-408 20 0
-408 30 0
-408 67 0
-408 -183 0
408 21 -20 -30 -67 183 0
-409 156 0
-409 158 0
-409 90 0
-409 -107 0
-409 -184 0
409 -156 -158 -90 107 184 0
-410 115 0
-410 -54 0
-410 -26 0
-410 36 0
-410 25 0
410 -115 54 26 -36 -25 0
406 407 408 409 410 0
-411 -109 0
-411 -162 0
-411 124 0
-411 -89 0
-411 -137 0
411 109 162 -124 89 137 0
-412 1 0
-412 151 0
-412 -110 0
-412 90 0
-412 37 0
412 -1 -151 110 -90 -37 0
-413 121 0
-413 182 0
-413 -137 0
-413 -152 0
-413 70 0
413 -121 -182 137 152 -70 0
-414 72 0
-414 -61 0
-414 -56 0
-414 12 0
-414 135 0
414 -72 61 56 -12 -135 0
-415 154 0
-415 -29 0
-415 -122 0
-415 -183 0
-415 -108 0
415 -154 29 122 183 108 0
411 412 413 414 415 0
-416 102 0
-416 -88 0
-416 -75 0
-416 -23 0
-416 -89 0
416 -102 88 75 23 89 0
-417 -66 0
-417 -184 0
-417 -61 0
-417 139 0
-417 -103 0
417 66 184 61 -139 103 0
-418 -159 0
-418 182 0
-418 9 0
-418 -116 0
-418 -140 0
418 159 -182 -9 116 140 0
-419 165 0
-419 34 0
-419 189 0
-419 -138 0
-419 36 0
419 -165 -34 -189 138 -36 0
-420 -175 0
-420 90 0
-420 -32 0
-420 40 0
-420 -178 0
420 175 -90 32 -40 178 0
416 417 418 419 420 0
-421 -65 0
-421 -185 0
-421 -133 0
-421 -126 0
-421 -15 0
421 65 185 133 126 15 0
-422 174 0
-422 -25 0
-422 -88 0
-422 72 0
-422 67 0
422 -174 25 88 -72 -67 0
-423 -163 0
-423 -70 0
-423 -164 0
-423 -28 0
-423 -117 0
423 163 70 164 28 117 0
-424 171 0
-424 -120 0
-424 87 0
-424 -129 0
-424 -101 0
424 -171 120 -87 129 101 0
-425 69 0
-425 59 0
-425 133 0
-425 -187 0
-425 84 0
425 -69 -59 -133 187 -84 0
421 422 423 424 425 0
-426 174 0
-426 153 0
-426 -15 0
-426 72 0
-426 110 0
426 -174 -153 15 -72 -110 0
-427 -51 0
-427 62 0
-427 -95 0
-427 72 0
-427 -57 0
427 51 -62 95 -72 57 0
-428 -17 0
-428 115 0
-428 -31 0
-428 179 0
-428 -32 0
428 17 -115 31 -179 32 0
-429 -131 0
-429 -23 0
-429 99 0
-429 132 0
-429 28 0
429 131 23 -99 -132 -28 0
-430 38 0
-430 178 0
-430 70 0
-430 113 0
-430 -29 0
430 -38 -178 -70 -113 29 0
426 427 428 429 430 0
